<instance format="XCSP3" type="COP">
  <variables>
    <array id="x" note="x[i][j] is 1 if the ith ring contains the jth node" size="[6][10]"> 0 1 </array>
  </variables>
  <constraints>
    <group>
      <extension>
        <list> %... </list>
        <supports> (1,1,*,*,*,*,*,*,*,*,*,*)(*,*,1,1,*,*,*,*,*,*,*,*)(*,*,*,*,1,1,*,*,*,*,*,*)(*,*,*,*,*,*,1,1,*,*,*,*)(*,*,*,*,*,*,*,*,1,1,*,*)(*,*,*,*,*,*,*,*,*,*,1,1) </supports>
      </extension>
      <args> x[0][0] x[0][3] x[1][0] x[1][3] x[2][0] x[2][3] x[3][0] x[3][3] x[4][0] x[4][3] x[5][0] x[5][3] </args>
      <args> x[0][0] x[0][4] x[1][0] x[1][4] x[2][0] x[2][4] x[3][0] x[3][4] x[4][0] x[4][4] x[5][0] x[5][4] </args>
      <args> x[0][0] x[0][8] x[1][0] x[1][8] x[2][0] x[2][8] x[3][0] x[3][8] x[4][0] x[4][8] x[5][0] x[5][8] </args>
      <args> x[][1..2] </args>
      <args> x[0][1] x[0][3] x[1][1] x[1][3] x[2][1] x[2][3] x[3][1] x[3][3] x[4][1] x[4][3] x[5][1] x[5][3] </args>
      <args> x[0][1] x[0][5] x[1][1] x[1][5] x[2][1] x[2][5] x[3][1] x[3][5] x[4][1] x[4][5] x[5][1] x[5][5] </args>
      <args> x[0][1] x[0][9] x[1][1] x[1][9] x[2][1] x[2][9] x[3][1] x[3][9] x[4][1] x[4][9] x[5][1] x[5][9] </args>
      <args> x[][2..3] </args>
      <args> x[0][2] x[0][8] x[1][2] x[1][8] x[2][2] x[2][8] x[3][2] x[3][8] x[4][2] x[4][8] x[5][2] x[5][8] </args>
      <args> x[0][4] x[0][6] x[1][4] x[1][6] x[2][4] x[2][6] x[3][4] x[3][6] x[4][4] x[4][6] x[5][4] x[5][6] </args>
      <args> x[0][4] x[0][8] x[1][4] x[1][8] x[2][4] x[2][8] x[3][4] x[3][8] x[4][4] x[4][8] x[5][4] x[5][8] </args>
      <args> x[0][4] x[0][9] x[1][4] x[1][9] x[2][4] x[2][9] x[3][4] x[3][9] x[4][4] x[4][9] x[5][4] x[5][9] </args>
      <args> x[0][6] x[0][8] x[1][6] x[1][8] x[2][6] x[2][8] x[3][6] x[3][8] x[4][6] x[4][8] x[5][6] x[5][8] </args>
      <args> x[0][7] x[0][9] x[1][7] x[1][9] x[2][7] x[2][9] x[3][7] x[3][9] x[4][7] x[4][9] x[5][7] x[5][9] </args>
      <args> x[][8..9] </args>
    </group>
    <group note="respecting the capacity of rings">
      <sum>
        <list> %... </list>
        <condition> (le,5) </condition>
      </sum>
      <args> x[0][] </args>
      <args> x[1][] </args>
      <args> x[2][] </args>
      <args> x[3][] </args>
      <args> x[4][] </args>
      <args> x[5][] </args>
    </group>
  </constraints>
  <objectives>
    <minimize note="minimizing the number of nodes installed on rings" type="sum"> x[][] </minimize>
  </objectives>
</instance>
